num_offers = 40;
num_halls = 10;
start=[27,46,49,36,18,36,36,83,53,3,52,88,77,6,10,30,94,69,5,14,22,59,20,26,12,31,41,20,25,61,6,64,21,53,11,4,14,6,20,43];
end=[93,79,71,84,35,86,98,84,56,52,100,91,97,28,94,48,97,83,6,66,72,87,89,32,55,51,98,34,69,85,35,75,100,90,31,92,93,34,22,100];
price=[4414,2146,315,656,561,4811,4605,184,315,4147,846,268,595,1636,4906,1829,160,1425,30,4306,4502,2772,5707,367,599,732,840,274,1024,2429,1889,560,5655,3634,264,3828,3353,1353,263,3699];
requirement=[210,246,673,971,734,732,844,900,277,912,628,874,415,268,797,249,214,517,608,216,607,710,224,942,417,804,265,751,371,816,202,579,467,428,320,681,959,975,510,270];
capacity=[444,859,551,633,739,523,873,414,407,531];
